c nIsolatedPIs 192
c maxPI 64
p cnf 210 439
c gate 65 -24 -56 0
-24 -65 0
-56 -65 0
24 56 65 0
c gate 66 23 55 0
23 -66 0
55 -66 0
-23 -55 66 0
c gate 67 24 56 0
24 -67 0
56 -67 0
-24 -56 67 0
c gate 68 -66 -67 0
-66 -68 0
-67 -68 0
66 67 68 0
c gate 69 -22 -54 0
-22 -69 0
-54 -69 0
22 54 69 0
c gate 70 -23 -55 0
-23 -70 0
-55 -70 0
23 55 70 0
c gate 71 -69 -70 0
-69 -71 0
-70 -71 0
69 70 71 0
c gate 72 22 54 0
22 -72 0
54 -72 0
-22 -54 72 0
c gate 73 21 53 0
21 -73 0
53 -73 0
-21 -53 73 0
c gate 74 -72 -73 0
-72 -74 0
-73 -74 0
72 73 74 0
c gate 75 -21 -53 0
-21 -75 0
-53 -75 0
21 53 75 0
c gate 76 20 52 0
20 -76 0
52 -76 0
-20 -52 76 0
c gate 77 -20 -52 0
-20 -77 0
-52 -77 0
20 52 77 0
c gate 78 19 -77 0
19 -78 0
-77 -78 0
-19 77 78 0
c gate 79 51 78 0
51 -79 0
78 -79 0
-51 -78 79 0
c gate 80 -76 -79 0
-76 -80 0
-79 -80 0
76 79 80 0
c gate 81 51 -77 0
51 -81 0
-77 -81 0
-51 77 81 0
c gate 82 -78 -81 0
-78 -82 0
-81 -82 0
78 81 82 0
c gate 83 18 50 0
18 -83 0
50 -83 0
-18 -50 83 0
c gate 84 17 49 0
17 -84 0
49 -84 0
-17 -49 84 0
c gate 85 -83 -84 0
-83 -85 0
-84 -85 0
83 84 85 0
c gate 86 -18 -50 0
-18 -86 0
-50 -86 0
18 50 86 0
c gate 87 -85 -86 0
-85 -87 0
-86 -87 0
85 86 87 0
c gate 88 -82 87 0
-82 -88 0
87 -88 0
82 -87 88 0
c gate 89 80 -88 0
80 -89 0
-88 -89 0
-80 88 89 0
c gate 90 -75 -89 0
-75 -90 0
-89 -90 0
75 89 90 0
c gate 91 74 -90 0
74 -91 0
-90 -91 0
-74 90 91 0
c gate 92 71 -91 0
71 -92 0
-91 -92 0
-71 91 92 0
c gate 93 68 -92 0
68 -93 0
-92 -93 0
-68 92 93 0
c gate 94 -65 -93 0
-65 -94 0
-93 -94 0
65 93 94 0
c gate 95 2 34 0
2 -95 0
34 -95 0
-2 -34 95 0
c gate 96 1 33 0
1 -96 0
33 -96 0
-1 -33 96 0
c gate 97 -95 -96 0
-95 -97 0
-96 -97 0
95 96 97 0
c gate 98 -3 -35 0
-3 -98 0
-35 -98 0
3 35 98 0
c gate 99 -2 -34 0
-2 -99 0
-34 -99 0
2 34 99 0
c gate 100 -98 -99 0
-98 -100 0
-99 -100 0
98 99 100 0
c gate 101 -97 100 0
-97 -101 0
100 -101 0
97 -100 101 0
c gate 102 4 36 0
4 -102 0
36 -102 0
-4 -36 102 0
c gate 103 3 35 0
3 -103 0
35 -103 0
-3 -35 103 0
c gate 104 -102 -103 0
-102 -104 0
-103 -104 0
102 103 104 0
c gate 105 -101 104 0
-101 -105 0
104 -105 0
101 -104 105 0
c gate 106 -4 -36 0
-4 -106 0
-36 -106 0
4 36 106 0
c gate 107 -5 -37 0
-5 -107 0
-37 -107 0
5 37 107 0
c gate 108 -106 -107 0
-106 -108 0
-107 -108 0
106 107 108 0
c gate 109 -105 108 0
-105 -109 0
108 -109 0
105 -108 109 0
c gate 110 6 38 0
6 -110 0
38 -110 0
-6 -38 110 0
c gate 111 5 37 0
5 -111 0
37 -111 0
-5 -37 111 0
c gate 112 -110 -111 0
-110 -112 0
-111 -112 0
110 111 112 0
c gate 113 -109 112 0
-109 -113 0
112 -113 0
109 -112 113 0
c gate 114 -7 -39 0
-7 -114 0
-39 -114 0
7 39 114 0
c gate 115 -6 -38 0
-6 -115 0
-38 -115 0
6 38 115 0
c gate 116 -114 -115 0
-114 -116 0
-115 -116 0
114 115 116 0
c gate 117 -113 116 0
-113 -117 0
116 -117 0
113 -116 117 0
c gate 118 8 40 0
8 -118 0
40 -118 0
-8 -40 118 0
c gate 119 7 39 0
7 -119 0
39 -119 0
-7 -39 119 0
c gate 120 -118 -119 0
-118 -120 0
-119 -120 0
118 119 120 0
c gate 121 -117 120 0
-117 -121 0
120 -121 0
117 -120 121 0
c gate 122 -9 -41 0
-9 -122 0
-41 -122 0
9 41 122 0
c gate 123 -8 -40 0
-8 -123 0
-40 -123 0
8 40 123 0
c gate 124 -122 -123 0
-122 -124 0
-123 -124 0
122 123 124 0
c gate 125 -121 124 0
-121 -125 0
124 -125 0
121 -124 125 0
c gate 126 10 42 0
10 -126 0
42 -126 0
-10 -42 126 0
c gate 127 9 41 0
9 -127 0
41 -127 0
-9 -41 127 0
c gate 128 -126 -127 0
-126 -128 0
-127 -128 0
126 127 128 0
c gate 129 -125 128 0
-125 -129 0
128 -129 0
125 -128 129 0
c gate 130 -10 -42 0
-10 -130 0
-42 -130 0
10 42 130 0
c gate 131 -12 -44 0
-12 -131 0
-44 -131 0
12 44 131 0
c gate 132 -11 -43 0
-11 -132 0
-43 -132 0
11 43 132 0
c gate 133 -131 -132 0
-131 -133 0
-132 -133 0
131 132 133 0
c gate 134 -130 133 0
-130 -134 0
133 -134 0
130 -133 134 0
c gate 135 -129 134 0
-129 -135 0
134 -135 0
129 -134 135 0
c gate 136 12 44 0
12 -136 0
44 -136 0
-12 -44 136 0
c gate 137 11 43 0
11 -137 0
43 -137 0
-11 -43 137 0
c gate 138 -131 137 0
-131 -138 0
137 -138 0
131 -137 138 0
c gate 139 -136 -138 0
-136 -139 0
-138 -139 0
136 138 139 0
c gate 140 -135 139 0
-135 -140 0
139 -140 0
135 -139 140 0
c gate 141 -14 -46 0
-14 -141 0
-46 -141 0
14 46 141 0
c gate 142 -15 -47 0
-15 -142 0
-47 -142 0
15 47 142 0
c gate 143 -141 -142 0
-141 -143 0
-142 -143 0
141 142 143 0
c gate 144 14 46 0
14 -144 0
46 -144 0
-14 -46 144 0
c gate 145 13 45 0
13 -145 0
45 -145 0
-13 -45 145 0
c gate 146 -144 -145 0
-144 -146 0
-145 -146 0
144 145 146 0
c gate 147 -13 -45 0
-13 -147 0
-45 -147 0
13 45 147 0
c gate 148 146 -147 0
146 -148 0
-147 -148 0
-146 147 148 0
c gate 149 143 148 0
143 -149 0
148 -149 0
-143 -148 149 0
c gate 150 -140 149 0
-140 -150 0
149 -150 0
140 -149 150 0
c gate 151 143 -146 0
143 -151 0
-146 -151 0
-143 146 151 0
c gate 152 15 47 0
15 -152 0
47 -152 0
-15 -47 152 0
c gate 153 16 48 0
16 -153 0
48 -153 0
-16 -48 153 0
c gate 154 -152 -153 0
-152 -154 0
-153 -154 0
152 153 154 0
c gate 155 -151 154 0
-151 -155 0
154 -155 0
151 -154 155 0
c gate 156 -150 155 0
-150 -156 0
155 -156 0
150 -155 156 0
c gate 157 -17 -49 0
-17 -157 0
-49 -157 0
17 49 157 0
c gate 158 -16 -48 0
-16 -158 0
-48 -158 0
16 48 158 0
c gate 159 -86 -158 0
-86 -159 0
-158 -159 0
86 158 159 0
c gate 160 -157 159 0
-157 -160 0
159 -160 0
157 -159 160 0
c gate 161 -65 -75 0
-65 -161 0
-75 -161 0
65 75 161 0
c gate 162 68 161 0
68 -162 0
161 -162 0
-68 -161 162 0
c gate 163 160 162 0
160 -163 0
162 -163 0
-160 -162 163 0
c gate 164 -82 163 0
-82 -164 0
163 -164 0
82 -163 164 0
c gate 165 71 74 0
71 -165 0
74 -165 0
-71 -74 165 0
c gate 166 85 165 0
85 -166 0
165 -166 0
-85 -165 166 0
c gate 167 80 166 0
80 -167 0
166 -167 0
-80 -166 167 0
c gate 168 164 167 0
164 -168 0
167 -168 0
-164 -167 168 0
c gate 169 -156 168 0
-156 -169 0
168 -169 0
156 -168 169 0
c gate 170 -94 -169 0
-94 -170 0
-169 -170 0
94 169 170 0
c gate 171 -30 -62 0
-30 -171 0
-62 -171 0
30 62 171 0
c gate 172 -31 -63 0
-31 -172 0
-63 -172 0
31 63 172 0
c gate 173 -171 -172 0
-171 -173 0
-172 -173 0
171 172 173 0
c gate 174 30 62 0
30 -174 0
62 -174 0
-30 -62 174 0
c gate 175 29 61 0
29 -175 0
61 -175 0
-29 -61 175 0
c gate 176 -174 -175 0
-174 -176 0
-175 -176 0
174 175 176 0
c gate 177 173 -176 0
173 -177 0
-176 -177 0
-173 176 177 0
c gate 178 32 64 0
32 -178 0
64 -178 0
-32 -64 178 0
c gate 179 31 63 0
31 -179 0
63 -179 0
-31 -63 179 0
c gate 180 -178 -179 0
-178 -180 0
-179 -180 0
178 179 180 0
c gate 181 -177 180 0
-177 -181 0
180 -181 0
177 -180 181 0
c gate 182 28 60 0
28 -182 0
60 -182 0
-28 -60 182 0
c gate 183 -28 -60 0
-28 -183 0
-60 -183 0
28 60 183 0
c gate 184 27 59 0
27 -184 0
59 -184 0
-27 -59 184 0
c gate 185 -183 184 0
-183 -185 0
184 -185 0
183 -184 185 0
c gate 186 -182 -185 0
-182 -186 0
-185 -186 0
182 185 186 0
c gate 187 -26 -58 0
-26 -187 0
-58 -187 0
26 58 187 0
c gate 188 -27 -59 0
-27 -188 0
-59 -188 0
27 59 188 0
c gate 189 -183 -188 0
-183 -189 0
-188 -189 0
183 188 189 0
c gate 190 -187 189 0
-187 -190 0
189 -190 0
187 -189 190 0
c gate 191 186 190 0
186 -191 0
190 -191 0
-186 -190 191 0
c gate 192 -29 -61 0
-29 -192 0
-61 -192 0
29 61 192 0
c gate 193 173 -192 0
173 -193 0
-192 -193 0
-173 192 193 0
c gate 194 26 58 0
26 -194 0
58 -194 0
-26 -58 194 0
c gate 195 25 57 0
25 -195 0
57 -195 0
-25 -57 195 0
c gate 196 -194 -195 0
-194 -196 0
-195 -196 0
194 195 196 0
c gate 197 -25 -57 0
-25 -197 0
-57 -197 0
25 57 197 0
c gate 198 -32 -64 0
-32 -198 0
-64 -198 0
32 64 198 0
c gate 199 -197 -198 0
-197 -199 0
-198 -199 0
197 198 199 0
c gate 200 196 199 0
196 -200 0
199 -200 0
-196 -199 200 0
c gate 201 193 200 0
193 -201 0
200 -201 0
-193 -200 201 0
c gate 202 191 201 0
191 -202 0
201 -202 0
-191 -201 202 0
c gate 203 181 202 0
181 -203 0
202 -203 0
-181 -202 203 0
c gate 204 -170 203 0
-170 -204 0
203 -204 0
170 -203 204 0
c gate 205 191 -196 0
191 -205 0
-196 -205 0
-191 196 205 0
c gate 206 186 -205 0
186 -206 0
-205 -206 0
-186 205 206 0
c gate 207 193 -206 0
193 -207 0
-206 -207 0
-193 206 207 0
c gate 208 181 -207 0
181 -208 0
-207 -208 0
-181 207 208 0
c gate 209 -198 -208 0
-198 -209 0
-208 -209 0
198 208 209 0
c gate 210 204 -209 0
204 -210 0
-209 -210 0
-204 209 210 0
c PO
210 0
